c Software verification instances generated by
c Calysto static checker. For more information
c contact Domagoj Babic.
c Location in code: /work/benchmarks/SOURCES/gzip-1.2.4/gzip.c:596

p cnf 976 1861
1 0
-2 0
-259 0
-260 0
-261 0
-262 0
-263 0
-264 0
-265 0
-266 0
-267 0
-268 0
-269 0
-270 0
-271 0
-272 0
-273 0
-274 0
-275 0
-276 0
-277 0
-278 0
-279 0
-280 0
-281 0
-282 0
-283 0
-284 0
-285 0
-286 0
-287 0
-288 0
-289 0
-290 0
-388 0
389 0
390 0
391 0
392 0
-393 0
-394 0
-395 0
-396 0
-397 0
-398 0
-399 0
-400 0
-401 0
-402 0
-403 0
-404 0
-405 0
-406 0
-407 0
-408 0
-409 0
-410 0
-411 0
-412 0
-413 0
-414 0
-415 0
-416 0
-417 0
-418 0
-419 0
-487 0
-507 0
-511 0
-515 0
-519 0
-523 0
-527 0
-531 0
-535 0
-539 0
-543 0
-547 0
-551 0
-555 0
-559 0
-563 0
-567 0
-571 0
-575 0
-579 0
-583 0
-587 0
-591 0
-595 0
-599 0
-603 0
-607 0
-611 0
614 0
615 0
616 0
617 0
618 0
619 0
620 0
621 0
622 0
623 0
624 0
625 0
626 0
627 0
628 0
629 0
630 0
631 0
632 0
633 0
634 0
635 0
636 0
637 0
638 0
639 0
640 0
641 0
642 0
643 0
644 0
645 0
-845 0
-846 0
-847 0
-848 0
-849 0
-850 0
-851 0
-852 0
-853 0
-854 0
-855 0
-856 0
-857 0
-858 0
-859 0
-860 0
-861 0
-862 0
-863 0
-864 0
-865 0
-866 0
-867 0
-868 0
-869 0
-870 0
-871 0
-872 0
-873 0
-874 0
-875 0
-876 0
-976 0
35 99 0
-35 -99 0
36 100 0
-36 -100 0
37 101 0
-37 -101 0
38 102 0
-38 -102 0
39 103 0
-39 -103 0
40 104 0
-40 -104 0
41 105 0
-41 -105 0
42 106 0
-42 -106 0
43 107 0
-43 -107 0
44 108 0
-44 -108 0
45 109 0
-45 -109 0
46 110 0
-46 -110 0
47 111 0
-47 -111 0
48 112 0
-48 -112 0
49 113 0
-49 -113 0
50 114 0
-50 -114 0
51 115 0
-51 -115 0
52 116 0
-52 -116 0
53 117 0
-53 -117 0
54 118 0
-54 -118 0
55 119 0
-55 -119 0
56 120 0
-56 -120 0
57 121 0
-57 -121 0
58 122 0
-58 -122 0
59 123 0
-59 -123 0
60 124 0
-60 -124 0
61 125 0
-61 -125 0
62 126 0
-62 -126 0
63 127 0
-63 -127 0
64 128 0
-64 -128 0
65 129 0
-65 -129 0
66 130 0
-66 -130 0
-3 99 131 0
3 -99 131 0
3 99 -131 0
-3 -99 -131 0
-3 -99 133 0
3 -133 0
99 -133 0
-131 132 0
131 -132 0
132 133 -134 0
-132 134 0
-133 134 0
67 131 0
-67 -131 0
-4 100 135 0
4 -100 135 0
4 100 -135 0
-4 -100 -135 0
-4 -100 137 0
4 -137 0
100 -137 0
-134 -135 136 0
135 -136 0
134 -136 0
136 137 -138 0
-136 138 0
-137 138 0
68 134 -135 0
68 -134 135 0
-68 134 135 0
-68 -134 -135 0
-5 101 139 0
5 -101 139 0
5 101 -139 0
-5 -101 -139 0
-5 -101 141 0
5 -141 0
101 -141 0
-138 -139 140 0
139 -140 0
138 -140 0
140 141 -142 0
-140 142 0
-141 142 0
69 138 -139 0
69 -138 139 0
-69 138 139 0
-69 -138 -139 0
-6 102 143 0
6 -102 143 0
6 102 -143 0
-6 -102 -143 0
-6 -102 145 0
6 -145 0
102 -145 0
-142 -143 144 0
143 -144 0
142 -144 0
144 145 -146 0
-144 146 0
-145 146 0
70 142 -143 0
70 -142 143 0
-70 142 143 0
-70 -142 -143 0
-7 103 147 0
7 -103 147 0
7 103 -147 0
-7 -103 -147 0
-7 -103 149 0
7 -149 0
103 -149 0
-146 -147 148 0
147 -148 0
146 -148 0
148 149 -150 0
-148 150 0
-149 150 0
71 146 -147 0
71 -146 147 0
-71 146 147 0
-71 -146 -147 0
-8 104 151 0
8 -104 151 0
8 104 -151 0
-8 -104 -151 0
-8 -104 153 0
8 -153 0
104 -153 0
-150 -151 152 0
151 -152 0
150 -152 0
152 153 -154 0
-152 154 0
-153 154 0
72 150 -151 0
72 -150 151 0
-72 150 151 0
-72 -150 -151 0
-9 105 155 0
9 -105 155 0
9 105 -155 0
-9 -105 -155 0
-9 -105 157 0
9 -157 0
105 -157 0
-154 -155 156 0
155 -156 0
154 -156 0
156 157 -158 0
-156 158 0
-157 158 0
73 154 -155 0
73 -154 155 0
-73 154 155 0
-73 -154 -155 0
-10 106 159 0
10 -106 159 0
10 106 -159 0
-10 -106 -159 0
-10 -106 161 0
10 -161 0
106 -161 0
-158 -159 160 0
159 -160 0
158 -160 0
160 161 -162 0
-160 162 0
-161 162 0
74 158 -159 0
74 -158 159 0
-74 158 159 0
-74 -158 -159 0
-11 107 163 0
11 -107 163 0
11 107 -163 0
-11 -107 -163 0
-11 -107 165 0
11 -165 0
107 -165 0
-162 -163 164 0
163 -164 0
162 -164 0
164 165 -166 0
-164 166 0
-165 166 0
75 162 -163 0
75 -162 163 0
-75 162 163 0
-75 -162 -163 0
-12 108 167 0
12 -108 167 0
12 108 -167 0
-12 -108 -167 0
-12 -108 169 0
12 -169 0
108 -169 0
-166 -167 168 0
167 -168 0
166 -168 0
168 169 -170 0
-168 170 0
-169 170 0
76 166 -167 0
76 -166 167 0
-76 166 167 0
-76 -166 -167 0
-13 109 171 0
13 -109 171 0
13 109 -171 0
-13 -109 -171 0
-13 -109 173 0
13 -173 0
109 -173 0
-170 -171 172 0
171 -172 0
170 -172 0
172 173 -174 0
-172 174 0
-173 174 0
77 170 -171 0
77 -170 171 0
-77 170 171 0
-77 -170 -171 0
-14 110 175 0
14 -110 175 0
14 110 -175 0
-14 -110 -175 0
-14 -110 177 0
14 -177 0
110 -177 0
-174 -175 176 0
175 -176 0
174 -176 0
176 177 -178 0
-176 178 0
-177 178 0
78 174 -175 0
78 -174 175 0
-78 174 175 0
-78 -174 -175 0
-15 111 179 0
15 -111 179 0
15 111 -179 0
-15 -111 -179 0
-15 -111 181 0
15 -181 0
111 -181 0
-178 -179 180 0
179 -180 0
178 -180 0
180 181 -182 0
-180 182 0
-181 182 0
79 178 -179 0
79 -178 179 0
-79 178 179 0
-79 -178 -179 0
-16 112 183 0
16 -112 183 0
16 112 -183 0
-16 -112 -183 0
-16 -112 185 0
16 -185 0
112 -185 0
-182 -183 184 0
183 -184 0
182 -184 0
184 185 -186 0
-184 186 0
-185 186 0
80 182 -183 0
80 -182 183 0
-80 182 183 0
-80 -182 -183 0
-17 113 187 0
17 -113 187 0
17 113 -187 0
-17 -113 -187 0
-17 -113 189 0
17 -189 0
113 -189 0
-186 -187 188 0
187 -188 0
186 -188 0
188 189 -190 0
-188 190 0
-189 190 0
81 186 -187 0
81 -186 187 0
-81 186 187 0
-81 -186 -187 0
-18 114 191 0
18 -114 191 0
18 114 -191 0
-18 -114 -191 0
-18 -114 193 0
18 -193 0
114 -193 0
-190 -191 192 0
191 -192 0
190 -192 0
192 193 -194 0
-192 194 0
-193 194 0
82 190 -191 0
82 -190 191 0
-82 190 191 0
-82 -190 -191 0
-19 115 195 0
19 -115 195 0
19 115 -195 0
-19 -115 -195 0
-19 -115 197 0
19 -197 0
115 -197 0
-194 -195 196 0
195 -196 0
194 -196 0
196 197 -198 0
-196 198 0
-197 198 0
83 194 -195 0
83 -194 195 0
-83 194 195 0
-83 -194 -195 0
-20 116 199 0
20 -116 199 0
20 116 -199 0
-20 -116 -199 0
-20 -116 201 0
20 -201 0
116 -201 0
-198 -199 200 0
199 -200 0
198 -200 0
200 201 -202 0
-200 202 0
-201 202 0
84 198 -199 0
84 -198 199 0
-84 198 199 0
-84 -198 -199 0
-21 117 203 0
21 -117 203 0
21 117 -203 0
-21 -117 -203 0
-21 -117 205 0
21 -205 0
117 -205 0
-202 -203 204 0
203 -204 0
202 -204 0
204 205 -206 0
-204 206 0
-205 206 0
85 202 -203 0
85 -202 203 0
-85 202 203 0
-85 -202 -203 0
-22 118 207 0
22 -118 207 0
22 118 -207 0
-22 -118 -207 0
-22 -118 209 0
22 -209 0
118 -209 0
-206 -207 208 0
207 -208 0
206 -208 0
208 209 -210 0
-208 210 0
-209 210 0
86 206 -207 0
86 -206 207 0
-86 206 207 0
-86 -206 -207 0
-23 119 211 0
23 -119 211 0
23 119 -211 0
-23 -119 -211 0
-23 -119 213 0
23 -213 0
119 -213 0
-210 -211 212 0
211 -212 0
210 -212 0
212 213 -214 0
-212 214 0
-213 214 0
87 210 -211 0
87 -210 211 0
-87 210 211 0
-87 -210 -211 0
-24 120 215 0
24 -120 215 0
24 120 -215 0
-24 -120 -215 0
-24 -120 217 0
24 -217 0
120 -217 0
-214 -215 216 0
215 -216 0
214 -216 0
216 217 -218 0
-216 218 0
-217 218 0
88 214 -215 0
88 -214 215 0
-88 214 215 0
-88 -214 -215 0
-25 121 219 0
25 -121 219 0
25 121 -219 0
-25 -121 -219 0
-25 -121 221 0
25 -221 0
121 -221 0
-218 -219 220 0
219 -220 0
218 -220 0
220 221 -222 0
-220 222 0
-221 222 0
89 218 -219 0
89 -218 219 0
-89 218 219 0
-89 -218 -219 0
-26 122 223 0
26 -122 223 0
26 122 -223 0
-26 -122 -223 0
-26 -122 225 0
26 -225 0
122 -225 0
-222 -223 224 0
223 -224 0
222 -224 0
224 225 -226 0
-224 226 0
-225 226 0
90 222 -223 0
90 -222 223 0
-90 222 223 0
-90 -222 -223 0
-27 123 227 0
27 -123 227 0
27 123 -227 0
-27 -123 -227 0
-27 -123 229 0
27 -229 0
123 -229 0
-226 -227 228 0
227 -228 0
226 -228 0
228 229 -230 0
-228 230 0
-229 230 0
91 226 -227 0
91 -226 227 0
-91 226 227 0
-91 -226 -227 0
-28 124 231 0
28 -124 231 0
28 124 -231 0
-28 -124 -231 0
-28 -124 233 0
28 -233 0
124 -233 0
-230 -231 232 0
231 -232 0
230 -232 0
232 233 -234 0
-232 234 0
-233 234 0
92 230 -231 0
92 -230 231 0
-92 230 231 0
-92 -230 -231 0
-29 125 235 0
29 -125 235 0
29 125 -235 0
-29 -125 -235 0
-29 -125 237 0
29 -237 0
125 -237 0
-234 -235 236 0
235 -236 0
234 -236 0
236 237 -238 0
-236 238 0
-237 238 0
93 234 -235 0
93 -234 235 0
-93 234 235 0
-93 -234 -235 0
-30 126 239 0
30 -126 239 0
30 126 -239 0
-30 -126 -239 0
-30 -126 241 0
30 -241 0
126 -241 0
-238 -239 240 0
239 -240 0
238 -240 0
240 241 -242 0
-240 242 0
-241 242 0
94 238 -239 0
94 -238 239 0
-94 238 239 0
-94 -238 -239 0
-31 127 243 0
31 -127 243 0
31 127 -243 0
-31 -127 -243 0
-31 -127 245 0
31 -245 0
127 -245 0
-242 -243 244 0
243 -244 0
242 -244 0
244 245 -246 0
-244 246 0
-245 246 0
95 242 -243 0
95 -242 243 0
-95 242 243 0
-95 -242 -243 0
-32 128 247 0
32 -128 247 0
32 128 -247 0
-32 -128 -247 0
-32 -128 249 0
32 -249 0
128 -249 0
-246 -247 248 0
247 -248 0
246 -248 0
248 249 -250 0
-248 250 0
-249 250 0
96 246 -247 0
96 -246 247 0
-96 246 247 0
-96 -246 -247 0
-33 129 251 0
33 -129 251 0
33 129 -251 0
-33 -129 -251 0
-33 -129 253 0
33 -253 0
129 -253 0
-250 -251 252 0
251 -252 0
250 -252 0
252 253 -254 0
-252 254 0
-253 254 0
97 250 -251 0
97 -250 251 0
-97 250 251 0
-97 -250 -251 0
-34 130 255 0
34 -130 255 0
34 130 -255 0
-34 -130 -255 0
-34 -130 257 0
34 -257 0
130 -257 0
-254 -255 256 0
255 -256 0
254 -256 0
256 257 -258 0
-256 258 0
-257 258 0
98 254 -255 0
98 -254 255 0
-98 254 255 0
-98 -254 -255 0
67 292 0
-67 -292 0
68 293 0
-68 -293 0
69 294 0
-69 -294 0
70 295 0
-70 -295 0
71 296 0
-71 -296 0
72 297 0
-72 -297 0
73 298 0
-73 -298 0
74 299 0
-74 -299 0
75 300 0
-75 -300 0
76 301 0
-76 -301 0
77 302 0
-77 -302 0
78 303 0
-78 -303 0
79 304 0
-79 -304 0
80 305 0
-80 -305 0
81 306 0
-81 -306 0
82 307 0
-82 -307 0
83 308 0
-83 -308 0
84 309 0
-84 -309 0
85 310 0
-85 -310 0
86 311 0
-86 -311 0
87 312 0
-87 -312 0
88 313 0
-88 -313 0
89 314 0
-89 -314 0
90 315 0
-90 -315 0
91 316 0
-91 -316 0
92 317 0
-92 -317 0
93 318 0
-93 -318 0
94 319 0
-94 -319 0
95 320 0
-95 -320 0
96 321 0
-96 -321 0
97 322 0
-97 -322 0
98 323 0
-98 -323 0
-292 324 0
292 -324 0
-293 -324 325 0
324 -325 0
293 -325 0
-294 -325 326 0
325 -326 0
294 -326 0
-295 -326 327 0
326 -327 0
295 -327 0
-296 -327 328 0
327 -328 0
296 -328 0
-297 -328 329 0
328 -329 0
297 -329 0
-298 -329 330 0
329 -330 0
298 -330 0
-299 -330 331 0
330 -331 0
299 -331 0
-300 -331 332 0
331 -332 0
300 -332 0
-301 -332 333 0
332 -333 0
301 -333 0
-302 -333 334 0
333 -334 0
302 -334 0
-303 -334 335 0
334 -335 0
303 -335 0
-304 -335 336 0
335 -336 0
304 -336 0
-305 -336 337 0
336 -337 0
305 -337 0
-306 -337 338 0
337 -338 0
306 -338 0
-307 -338 339 0
338 -339 0
307 -339 0
-308 -339 340 0
339 -340 0
308 -340 0
-309 -340 341 0
340 -341 0
309 -341 0
-310 -341 342 0
341 -342 0
310 -342 0
-311 -342 343 0
342 -343 0
311 -343 0
-312 -343 344 0
343 -344 0
312 -344 0
-313 -344 345 0
344 -345 0
313 -345 0
-314 -345 346 0
345 -346 0
314 -346 0
-315 -346 347 0
346 -347 0
315 -347 0
-316 -347 348 0
347 -348 0
316 -348 0
-317 -348 349 0
348 -349 0
317 -349 0
-318 -349 350 0
349 -350 0
318 -350 0
-319 -350 351 0
350 -351 0
319 -351 0
-320 -351 352 0
351 -352 0
320 -352 0
-321 -352 353 0
352 -353 0
321 -353 0
-322 -353 354 0
353 -354 0
322 -354 0
-323 -354 355 0
354 -355 0
323 -355 0
-291 355 0
291 -355 0
356 453 0
-356 -453 0
357 454 0
-357 -454 0
358 455 0
-358 -455 0
359 456 0
-359 -456 0
360 457 0
-360 -457 0
361 458 0
-361 -458 0
362 459 0
-362 -459 0
363 460 0
-363 -460 0
364 461 0
-364 -461 0
365 462 0
-365 -462 0
366 463 0
-366 -463 0
367 464 0
-367 -464 0
368 465 0
-368 -465 0
369 466 0
-369 -466 0
370 467 0
-370 -467 0
371 468 0
-371 -468 0
372 469 0
-372 -469 0
373 470 0
-373 -470 0
374 471 0
-374 -471 0
375 472 0
-375 -472 0
376 473 0
-376 -473 0
377 474 0
-377 -474 0
378 475 0
-378 -475 0
379 476 0
-379 -476 0
380 477 0
-380 -477 0
381 478 0
-381 -478 0
382 479 0
-382 -479 0
383 480 0
-383 -480 0
384 481 0
-384 -481 0
385 482 0
-385 -482 0
386 483 0
-386 -483 0
387 484 0
-387 -484 0
-453 485 0
453 -485 0
-485 486 0
485 -486 0
486 -488 0
-486 488 0
421 485 0
-421 -485 0
454 489 0
-454 -489 0
-454 491 0
454 -491 0
-488 -489 490 0
489 -490 0
488 -490 0
490 491 -492 0
-490 492 0
-491 492 0
422 488 -489 0
422 -488 489 0
-422 488 489 0
-422 -488 -489 0
455 493 0
-455 -493 0
-455 495 0
455 -495 0
-492 -493 494 0
493 -494 0
492 -494 0
494 495 -496 0
-494 496 0
-495 496 0
423 492 -493 0
423 -492 493 0
-423 492 493 0
-423 -492 -493 0
456 497 0
-456 -497 0
-456 499 0
456 -499 0
-496 -497 498 0
497 -498 0
496 -498 0
498 499 -500 0
-498 500 0
-499 500 0
424 496 -497 0
424 -496 497 0
-424 496 497 0
-424 -496 -497 0
457 501 0
-457 -501 0
-457 503 0
457 -503 0
-500 -501 502 0
501 -502 0
500 -502 0
502 503 -504 0
-502 504 0
-503 504 0
425 500 -501 0
425 -500 501 0
-425 500 501 0
-425 -500 -501 0
-458 505 0
458 -505 0
-504 -505 506 0
505 -506 0
504 -506 0
506 -508 0
-506 508 0
426 504 -505 0
426 -504 505 0
-426 504 505 0
-426 -504 -505 0
-459 509 0
459 -509 0
-508 -509 510 0
509 -510 0
508 -510 0
510 -512 0
-510 512 0
427 508 -509 0
427 -508 509 0
-427 508 509 0
-427 -508 -509 0
-460 513 0
460 -513 0
-512 -513 514 0
513 -514 0
512 -514 0
514 -516 0
-514 516 0
428 512 -513 0
428 -512 513 0
-428 512 513 0
-428 -512 -513 0
-461 517 0
461 -517 0
-516 -517 518 0
517 -518 0
516 -518 0
518 -520 0
-518 520 0
429 516 -517 0
429 -516 517 0
-429 516 517 0
-429 -516 -517 0
-462 521 0
462 -521 0
-520 -521 522 0
521 -522 0
520 -522 0
522 -524 0
-522 524 0
430 520 -521 0
430 -520 521 0
-430 520 521 0
-430 -520 -521 0
-463 525 0
463 -525 0
-524 -525 526 0
525 -526 0
524 -526 0
526 -528 0
-526 528 0
431 524 -525 0
431 -524 525 0
-431 524 525 0
-431 -524 -525 0
-464 529 0
464 -529 0
-528 -529 530 0
529 -530 0
528 -530 0
530 -532 0
-530 532 0
432 528 -529 0
432 -528 529 0
-432 528 529 0
-432 -528 -529 0
-465 533 0
465 -533 0
-532 -533 534 0
533 -534 0
532 -534 0
534 -536 0
-534 536 0
433 532 -533 0
433 -532 533 0
-433 532 533 0
-433 -532 -533 0
-466 537 0
466 -537 0
-536 -537 538 0
537 -538 0
536 -538 0
538 -540 0
-538 540 0
434 536 -537 0
434 -536 537 0
-434 536 537 0
-434 -536 -537 0
-467 541 0
467 -541 0
-540 -541 542 0
541 -542 0
540 -542 0
542 -544 0
-542 544 0
435 540 -541 0
435 -540 541 0
-435 540 541 0
-435 -540 -541 0
-468 545 0
468 -545 0
-544 -545 546 0
545 -546 0
544 -546 0
546 -548 0
-546 548 0
436 544 -545 0
436 -544 545 0
-436 544 545 0
-436 -544 -545 0
-469 549 0
469 -549 0
-548 -549 550 0
549 -550 0
548 -550 0
550 -552 0
-550 552 0
437 548 -549 0
437 -548 549 0
-437 548 549 0
-437 -548 -549 0
-470 553 0
470 -553 0
-552 -553 554 0
553 -554 0
552 -554 0
554 -556 0
-554 556 0
438 552 -553 0
438 -552 553 0
-438 552 553 0
-438 -552 -553 0
-471 557 0
471 -557 0
-556 -557 558 0
557 -558 0
556 -558 0
558 -560 0
-558 560 0
439 556 -557 0
439 -556 557 0
-439 556 557 0
-439 -556 -557 0
-472 561 0
472 -561 0
-560 -561 562 0
561 -562 0
560 -562 0
562 -564 0
-562 564 0
440 560 -561 0
440 -560 561 0
-440 560 561 0
-440 -560 -561 0
-473 565 0
473 -565 0
-564 -565 566 0
565 -566 0
564 -566 0
566 -568 0
-566 568 0
441 564 -565 0
441 -564 565 0
-441 564 565 0
-441 -564 -565 0
-474 569 0
474 -569 0
-568 -569 570 0
569 -570 0
568 -570 0
570 -572 0
-570 572 0
442 568 -569 0
442 -568 569 0
-442 568 569 0
-442 -568 -569 0
-475 573 0
475 -573 0
-572 -573 574 0
573 -574 0
572 -574 0
574 -576 0
-574 576 0
443 572 -573 0
443 -572 573 0
-443 572 573 0
-443 -572 -573 0
-476 577 0
476 -577 0
-576 -577 578 0
577 -578 0
576 -578 0
578 -580 0
-578 580 0
444 576 -577 0
444 -576 577 0
-444 576 577 0
-444 -576 -577 0
-477 581 0
477 -581 0
-580 -581 582 0
581 -582 0
580 -582 0
582 -584 0
-582 584 0
445 580 -581 0
445 -580 581 0
-445 580 581 0
-445 -580 -581 0
-478 585 0
478 -585 0
-584 -585 586 0
585 -586 0
584 -586 0
586 -588 0
-586 588 0
446 584 -585 0
446 -584 585 0
-446 584 585 0
-446 -584 -585 0
-479 589 0
479 -589 0
-588 -589 590 0
589 -590 0
588 -590 0
590 -592 0
-590 592 0
447 588 -589 0
447 -588 589 0
-447 588 589 0
-447 -588 -589 0
-480 593 0
480 -593 0
-592 -593 594 0
593 -594 0
592 -594 0
594 -596 0
-594 596 0
448 592 -593 0
448 -592 593 0
-448 592 593 0
-448 -592 -593 0
-481 597 0
481 -597 0
-596 -597 598 0
597 -598 0
596 -598 0
598 -600 0
-598 600 0
449 596 -597 0
449 -596 597 0
-449 596 597 0
-449 -596 -597 0
-482 601 0
482 -601 0
-600 -601 602 0
601 -602 0
600 -602 0
602 -604 0
-602 604 0
450 600 -601 0
450 -600 601 0
-450 600 601 0
-450 -600 -601 0
-483 605 0
483 -605 0
-604 -605 606 0
605 -606 0
604 -606 0
606 -608 0
-606 608 0
451 604 -605 0
451 -604 605 0
-451 604 605 0
-451 -604 -605 0
-484 609 0
484 -609 0
-608 -609 610 0
609 -610 0
608 -610 0
610 -612 0
-610 612 0
452 608 -609 0
452 -608 609 0
-452 608 609 0
-452 -608 -609 0
608 -612 613 0
-608 612 613 0
608 612 -613 0
-608 -612 -613 0
420 452 613 0
420 -452 -613 0
-420 -452 613 0
-420 452 -613 0
-646 679 0
646 -679 0
-647 680 0
647 -680 0
-648 681 0
648 -681 0
-649 682 0
649 -682 0
-650 683 0
650 -683 0
-651 684 0
651 -684 0
-652 685 0
652 -685 0
-653 686 0
653 -686 0
-654 687 0
654 -687 0
-655 688 0
655 -688 0
-656 689 0
656 -689 0
-657 690 0
657 -690 0
-658 691 0
658 -691 0
-659 692 0
659 -692 0
-660 693 0
660 -693 0
-661 694 0
661 -694 0
-662 695 0
662 -695 0
-663 696 0
663 -696 0
-664 697 0
664 -697 0
-665 698 0
665 -698 0
-666 699 0
666 -699 0
-667 700 0
667 -700 0
-668 701 0
668 -701 0
-669 702 0
669 -702 0
-670 703 0
670 -703 0
-671 704 0
671 -704 0
-672 705 0
672 -705 0
-673 706 0
673 -706 0
-674 707 0
674 -707 0
-675 708 0
675 -708 0
-676 709 0
676 -709 0
-677 710 0
677 -710 0
-679 711 0
679 -711 0
-680 -711 712 0
711 -712 0
680 -712 0
-681 -712 713 0
712 -713 0
681 -713 0
-682 -713 714 0
713 -714 0
682 -714 0
-683 -714 715 0
714 -715 0
683 -715 0
-684 -715 716 0
715 -716 0
684 -716 0
-685 -716 717 0
716 -717 0
685 -717 0
-686 -717 718 0
717 -718 0
686 -718 0
-687 -718 719 0
718 -719 0
687 -719 0
-688 -719 720 0
719 -720 0
688 -720 0
-689 -720 721 0
720 -721 0
689 -721 0
-690 -721 722 0
721 -722 0
690 -722 0
-691 -722 723 0
722 -723 0
691 -723 0
-692 -723 724 0
723 -724 0
692 -724 0
-693 -724 725 0
724 -725 0
693 -725 0
-694 -725 726 0
725 -726 0
694 -726 0
-695 -726 727 0
726 -727 0
695 -727 0
-696 -727 728 0
727 -728 0
696 -728 0
-697 -728 729 0
728 -729 0
697 -729 0
-698 -729 730 0
729 -730 0
698 -730 0
-699 -730 731 0
730 -731 0
699 -731 0
-700 -731 732 0
731 -732 0
700 -732 0
-701 -732 733 0
732 -733 0
701 -733 0
-702 -733 734 0
733 -734 0
702 -734 0
-703 -734 735 0
734 -735 0
703 -735 0
-704 -735 736 0
735 -736 0
704 -736 0
-705 -736 737 0
736 -737 0
705 -737 0
-706 -737 738 0
737 -738 0
706 -738 0
-707 -738 739 0
738 -739 0
707 -739 0
-708 -739 740 0
739 -740 0
708 -740 0
-709 -740 741 0
740 -741 0
709 -741 0
-710 -741 742 0
741 -742 0
710 -742 0
-678 742 0
678 -742 0
-678 -743 744 0
678 -744 0
743 -744 0
-420 -744 745 0
420 -745 0
744 -745 0
-291 -745 746 0
291 -746 0
745 -746 0
747 780 0
-747 -780 0
748 781 0
-748 -781 0
749 782 0
-749 -782 0
750 783 0
-750 -783 0
751 784 0
-751 -784 0
752 785 0
-752 -785 0
753 786 0
-753 -786 0
754 787 0
-754 -787 0
755 788 0
-755 -788 0
756 789 0
-756 -789 0
757 790 0
-757 -790 0
758 791 0
-758 -791 0
759 792 0
-759 -792 0
760 793 0
-760 -793 0
761 794 0
-761 -794 0
762 795 0
-762 -795 0
763 796 0
-763 -796 0
764 797 0
-764 -797 0
765 798 0
-765 -798 0
766 799 0
-766 -799 0
767 800 0
-767 -800 0
768 801 0
-768 -801 0
769 802 0
-769 -802 0
770 803 0
-770 -803 0
771 804 0
-771 -804 0
772 805 0
-772 -805 0
773 806 0
-773 -806 0
774 807 0
-774 -807 0
775 808 0
-775 -808 0
776 809 0
-776 -809 0
777 810 0
-777 -810 0
778 811 0
-778 -811 0
-780 812 0
780 -812 0
-781 -812 813 0
812 -813 0
781 -813 0
-782 -813 814 0
813 -814 0
782 -814 0
-783 -814 815 0
814 -815 0
783 -815 0
-784 -815 816 0
815 -816 0
784 -816 0
-785 -816 817 0
816 -817 0
785 -817 0
-786 -817 818 0
817 -818 0
786 -818 0
-787 -818 819 0
818 -819 0
787 -819 0
-788 -819 820 0
819 -820 0
788 -820 0
-789 -820 821 0
820 -821 0
789 -821 0
-790 -821 822 0
821 -822 0
790 -822 0
-791 -822 823 0
822 -823 0
791 -823 0
-792 -823 824 0
823 -824 0
792 -824 0
-793 -824 825 0
824 -825 0
793 -825 0
-794 -825 826 0
825 -826 0
794 -826 0
-795 -826 827 0
826 -827 0
795 -827 0
-796 -827 828 0
827 -828 0
796 -828 0
-797 -828 829 0
828 -829 0
797 -829 0
-798 -829 830 0
829 -830 0
798 -830 0
-799 -830 831 0
830 -831 0
799 -831 0
-800 -831 832 0
831 -832 0
800 -832 0
-801 -832 833 0
832 -833 0
801 -833 0
-802 -833 834 0
833 -834 0
802 -834 0
-803 -834 835 0
834 -835 0
803 -835 0
-804 -835 836 0
835 -836 0
804 -836 0
-805 -836 837 0
836 -837 0
805 -837 0
-806 -837 838 0
837 -838 0
806 -838 0
-807 -838 839 0
838 -839 0
807 -839 0
-808 -839 840 0
839 -840 0
808 -840 0
-809 -840 841 0
840 -841 0
809 -841 0
-810 -841 842 0
841 -842 0
810 -842 0
-811 -842 843 0
842 -843 0
811 -843 0
-779 843 0
779 -843 0
-746 -779 844 0
779 -844 0
746 -844 0
877 911 0
-877 -911 0
878 912 0
-878 -912 0
879 913 0
-879 -913 0
880 914 0
-880 -914 0
881 915 0
-881 -915 0
882 916 0
-882 -916 0
883 917 0
-883 -917 0
884 918 0
-884 -918 0
885 919 0
-885 -919 0
886 920 0
-886 -920 0
887 921 0
-887 -921 0
888 922 0
-888 -922 0
889 923 0
-889 -923 0
890 924 0
-890 -924 0
891 925 0
-891 -925 0
892 926 0
-892 -926 0
893 927 0
-893 -927 0
894 928 0
-894 -928 0
895 929 0
-895 -929 0
896 930 0
-896 -930 0
897 931 0
-897 -931 0
898 932 0
-898 -932 0
899 933 0
-899 -933 0
900 934 0
-900 -934 0
901 935 0
-901 -935 0
902 936 0
-902 -936 0
903 937 0
-903 -937 0
904 938 0
-904 -938 0
905 939 0
-905 -939 0
906 940 0
-906 -940 0
907 941 0
-907 -941 0
908 942 0
-908 -942 0
-911 943 0
911 -943 0
-912 -943 944 0
943 -944 0
912 -944 0
-913 -944 945 0
944 -945 0
913 -945 0
-914 -945 946 0
945 -946 0
914 -946 0
-915 -946 947 0
946 -947 0
915 -947 0
-916 -947 948 0
947 -948 0
916 -948 0
-917 -948 949 0
948 -949 0
917 -949 0
-918 -949 950 0
949 -950 0
918 -950 0
-919 -950 951 0
950 -951 0
919 -951 0
-920 -951 952 0
951 -952 0
920 -952 0
-921 -952 953 0
952 -953 0
921 -953 0
-922 -953 954 0
953 -954 0
922 -954 0
-923 -954 955 0
954 -955 0
923 -955 0
-924 -955 956 0
955 -956 0
924 -956 0
-925 -956 957 0
956 -957 0
925 -957 0
-926 -957 958 0
957 -958 0
926 -958 0
-927 -958 959 0
958 -959 0
927 -959 0
-928 -959 960 0
959 -960 0
928 -960 0
-929 -960 961 0
960 -961 0
929 -961 0
-930 -961 962 0
961 -962 0
930 -962 0
-931 -962 963 0
962 -963 0
931 -963 0
-932 -963 964 0
963 -964 0
932 -964 0
-933 -964 965 0
964 -965 0
933 -965 0
-934 -965 966 0
965 -966 0
934 -966 0
-935 -966 967 0
966 -967 0
935 -967 0
-936 -967 968 0
967 -968 0
936 -968 0
-937 -968 969 0
968 -969 0
937 -969 0
-938 -969 970 0
969 -970 0
938 -970 0
-939 -970 971 0
970 -971 0
939 -971 0
-940 -971 972 0
971 -972 0
940 -972 0
-941 -972 973 0
972 -973 0
941 -973 0
-942 -973 974 0
973 -974 0
942 -974 0
-910 974 0
910 -974 0
909 910 0
-909 -910 0
844 975 0
-909 975 0
-844 909 -975 0
746 976 0
-975 976 0
-746 975 -976 0
